NAME          COPTPROB
OBJSENSE
  MIN
ROWS
 N  __OBJ___
 L  C1584   
 L  C1710   
 L  C2051   
 L  C2105   
 L  C2136   
COLUMNS
    MARKER    'MARKER'                 'INTORG'
    x90       __OBJ___  -1
    x90       C1584     1
    x90       C2136     1
    x166      __OBJ___  -1
    x166      C1584     1
    x166      C2051     1
    x580      __OBJ___  -1
    x580      C2105     1
    x580      C2136     1
    x890      __OBJ___  -1
    x890      C1710     1
    x890      C2105     1
    x1160     __OBJ___  -1
    x1160     C1710     1
    x1160     C2051     1
    MARKER    'MARKER'                 'INTEND'
RHS
    RHS       __OBJ___  682
    RHS       C1584     1
    RHS       C1710     1
    RHS       C2051     1
    RHS       C2105     1
    RHS       C2136     1
BOUNDS
 UP BOUND     x90       1
 UP BOUND     x166      1
 UP BOUND     x580      1
 UP BOUND     x890      1
 UP BOUND     x1160     1
ENDATA
